certificates/rado_a9_c95_N26.cnf
c Rad2 upper bound instance: x1 + 9*x2 - x3 = 95, interval [1,26]
p cnf 26 148
1 5 11 0
-1 -5 -11 0
1 12 14 0
-1 -12 -14 0
1 13 23 0
-1 -13 -23 0
2 6 11 0
-2 -6 -11 0
2 12 15 0
-2 -12 -15 0
2 13 24 0
-2 -13 -24 0
3 7 11 0
-3 -7 -11 0
3 12 16 0
-3 -12 -16 0
3 13 25 0
-3 -13 -25 0
4 8 11 0
-4 -8 -11 0
4 12 17 0
-4 -12 -17 0
4 13 26 0
-4 -13 -26 0
5 9 11 0
-5 -9 -11 0
5 12 18 0
-5 -12 -18 0
1 6 10 0
-1 -6 -10 0
6 10 11 0
-6 -10 -11 0
6 12 19 0
-6 -12 -19 0
2 7 10 0
-2 -7 -10 0
7 11 0
-7 -11 0
7 12 20 0
-7 -12 -20 0
3 8 10 0
-3 -8 -10 0
8 11 12 0
-8 -11 -12 0
8 12 21 0
-8 -12 -21 0
4 9 10 0
-4 -9 -10 0
9 11 13 0
-9 -11 -13 0
9 12 22 0
-9 -12 -22 0
5 10 0
-5 -10 0
10 11 14 0
-10 -11 -14 0
10 12 23 0
-10 -12 -23 0
11 15 0
-11 -15 0
11 12 24 0
-11 -12 -24 0
7 10 12 0
-7 -10 -12 0
11 12 16 0
-11 -12 -16 0
12 25 0
-12 -25 0
8 10 13 0
-8 -10 -13 0
11 13 17 0
-11 -13 -17 0
12 13 26 0
-12 -13 -26 0
9 10 14 0
-9 -10 -14 0
11 14 18 0
-11 -14 -18 0
1 9 15 0
-1 -9 -15 0
10 15 0
-10 -15 0
11 15 19 0
-11 -15 -19 0
2 9 16 0
-2 -9 -16 0
10 11 16 0
-10 -11 -16 0
11 16 20 0
-11 -16 -20 0
3 9 17 0
-3 -9 -17 0
10 12 17 0
-10 -12 -17 0
11 17 21 0
-11 -17 -21 0
4 9 18 0
-4 -9 -18 0
10 13 18 0
-10 -13 -18 0
11 18 22 0
-11 -18 -22 0
5 9 19 0
-5 -9 -19 0
10 14 19 0
-10 -14 -19 0
11 19 23 0
-11 -19 -23 0
6 9 20 0
-6 -9 -20 0
10 15 20 0
-10 -15 -20 0
11 20 24 0
-11 -20 -24 0
7 9 21 0
-7 -9 -21 0
10 16 21 0
-10 -16 -21 0
11 21 25 0
-11 -21 -25 0
8 9 22 0
-8 -9 -22 0
10 17 22 0
-10 -17 -22 0
11 22 26 0
-11 -22 -26 0
9 23 0
-9 -23 0
10 18 23 0
-10 -18 -23 0
1 8 24 0
-1 -8 -24 0
9 10 24 0
-9 -10 -24 0
10 19 24 0
-10 -19 -24 0
2 8 25 0
-2 -8 -25 0
9 11 25 0
-9 -11 -25 0
10 20 25 0
-10 -20 -25 0
3 8 26 0
-3 -8 -26 0
9 12 26 0
-9 -12 -26 0
10 21 26 0
-10 -21 -26 0
