certificates/rado_a9_c95_N26.drat
9 12 -26 0
-25 -26 0
-26 0
-23 25 0
-9 -12 0
d -22 -9 -12 0
25 0
-12 0
13 0
9 0
-3 0
-11 0
-23 0
8 0
16 0
7 0
15 0
24 0
22 0
19 0
10 0
0
